Tried aggregator 2 times.
MIP Presolve eliminated 8 rows and 8 columns.
Aggregator did 4 substitutions.
Reduced MIP has 105109 rows, 140148 columns, and 350364 nonzeros.
Reduced MIP has 35036 binaries, 0 generals, 0 SOSs, and 0 indicators.
Presolve time = 0.32 sec. (224.71 ticks)
Found incumbent of value 2380.977762 after 0.80 sec. (674.39 ticks)
Probing time = 0.27 sec. (6.64 ticks)
Tried aggregator 1 time.
Reduced MIP has 105109 rows, 140148 columns, and 350364 nonzeros.
Reduced MIP has 35036 binaries, 0 generals, 0 SOSs, and 0 indicators.
Presolve time = 0.48 sec. (189.93 ticks)
Probing time = 0.05 sec. (6.24 ticks)
MIP emphasis: balance optimality and feasibility.
MIP search method: dynamic search.
Parallel mode: deterministic, using up to 20 threads.
Root relaxation solution time = 1.32 sec. (933.10 ticks)

        Nodes                                         Cuts/
   Node  Left     Objective  IInf  Best Integer    Best Bound    ItCnt     Gap

*     0+    0                         2380.9778   1.41323e+07              --- 
*     0+    0                         7014.6981   1.41323e+07              --- 
      0     0  3253202.9178  1417     7014.6981  3253202.9178    13472     --- 
*     0+    0                      3091409.0690  3253202.9178             5.23%
      0     0  3236632.0933   770  3091409.0690    Cuts: 3144    14628    4.70%
*     0+    0                      3123687.8950  3236632.0933             3.62%
      0     0  3234175.1475   662  3123687.8950    Cuts: 2560    15796    3.54%
      0     0  3229800.5840   494  3123687.8950    Cuts: 2224    16634    3.40%
      0     0  3227675.5377   508  3123687.8950    Cuts: 1267    17132    3.33%
      0     0  3225389.0775   579  3123687.8950    Cuts: 1187    17667    3.26%
      0     0  3222934.6254   619  3123687.8950    Cuts: 1110    18173    3.18%
      0     0  3220820.9851   628  3123687.8950     Cuts: 756    18580    3.11%
      0     0  3218240.2754   604  3123687.8950     Cuts: 482    18917    3.03%
      0     0  3216507.8413   610  3123687.8950     Cuts: 381    19170    2.97%
      0     0  3215106.0029   555  3123687.8950     Cuts: 362    19380    2.93%
      0     0  3214415.5726   541  3123687.8950  MIRcuts: 230    19525    2.90%
      0     0  3213702.3541   529  3123687.8950     Cuts: 164    19621    2.88%
      0     0  3213566.9428   527  3123687.8950      Cuts: 72    19663    2.88%
      0     0  3213424.9502   517  3123687.8950   MIRcuts: 42    19701    2.87%
*     0+    0                      3178599.9953  3213424.9502             1.10%
*     0+    0                      3190700.9296  3213424.9502             0.71%
*     0+    0                      3192239.7708  3213424.9502             0.66%
      0     2  3213424.9502   517  3192239.7708  3213424.9502    19701    0.66%
Elapsed time = 15.47 sec. (11716.62 ticks, tree = 0.01 MB, solutions = 7)
      4     6  3213400.9085   515  3192239.7708  3213418.8260    19712    0.66%
      5     7  3213385.3832   517  3192239.7708  3213418.8260    19717    0.66%
      6     8  3213380.1996   515  3192239.7708  3213418.8260    19720    0.66%
      7     9  3213364.6744   517  3192239.7708  3213418.8260    19723    0.66%
      8    10  3213397.5775   513  3192239.7708  3213418.8260    19725    0.66%
      9    11  3213382.0523   515  3192239.7708  3213418.8260    19727    0.66%
     10    12  3213383.3218   517  3192239.7708  3213417.3329    19738    0.66%
     11    13  3213381.8435   515  3192239.7708  3213417.3329    19748    0.66%
     12    14  3213366.3182   517  3192239.7708  3213417.3329    19758    0.66%
     52    54  3213312.9432   516  3192239.7708  3213417.3329    19940    0.66%
Elapsed time = 17.33 sec. (12769.99 ticks, tree = 0.01 MB, solutions = 7)
*   332+  332                      3193251.6334  3213417.3329             0.63%
    332   334  3213141.4280   505  3193251.6334  3213417.3329    20518    0.63%
    339   341  3212761.3840   491  3193251.6334  3213417.3329    20526    0.63%
    341   343  3212725.4125   492  3193251.6334  3213417.3329    20528    0.63%
    353   355  3213015.2707   501  3193251.6334  3213417.3329    20550    0.63%
    356   358  3212950.0483   488  3193251.6334  3213417.3329    20556    0.63%
    357   359  3212895.5827   496  3193251.6334  3213417.3329    20558    0.63%
    372   374  3213006.2011   498  3193251.6334  3213417.3329    20577    0.63%
    498   500  3212614.1675   498  3193251.6334  3213417.3329    20848    0.63%
    499   501  3213139.1937   505  3193251.6334  3213417.3329    20849    0.63%
    500   502  3212843.6737   492  3193251.6334  3213417.3329    20850    0.63%
Elapsed time = 20.34 sec. (14214.95 ticks, tree = 0.01 MB, solutions = 8)
    948   950  3212045.6141   482  3193251.6334  3213417.3329    21925    0.63%
    949   951  3212817.3142   489  3193251.6334  3213417.3329    21926    0.63%
    950   952  3212564.3359   487  3193251.6334  3213417.3329    21927    0.63%
    953   955  3212431.1865   484  3193251.6334  3213417.3329    21937    0.63%
    955   957  3212662.8757   480  3193251.6334  3213417.3329    21945    0.63%
    956   958  3212305.2381   480  3193251.6334  3213417.3329    21948    0.63%
    958   960  3212205.9965   480  3193251.6334  3213417.3329    21955    0.63%
    959   961  3212543.6661   489  3193251.6334  3213417.3329    21960    0.63%
    961   963  3212575.4815   484  3193251.6334  3213417.3329    21965    0.63%
    968   970  3212027.1311   482  3193251.6334  3213417.3329    21984    0.63%
Elapsed time = 23.08 sec. (15207.65 ticks, tree = 1.17 MB, solutions = 8)
   1457  1459  3211999.9507   471  3193251.6334  3213417.3329    23237    0.63%
   1477  1479  3211997.6042   470  3193251.6334  3213417.3329    23307    0.63%
   1488  1490  3212037.6168   466  3193251.6334  3213417.3329    23336    0.63%
   1497  1499  3211995.2577   469  3193251.6334  3213417.3329    23374    0.63%
   1498  1500  3212073.6972   468  3193251.6334  3213417.3329    23377    0.63%
   1508  1510  3211984.7513   465  3193251.6334  3213417.3329    23416    0.63%
   1517  1519  3211981.9572   467  3193251.6334  3213417.3329    23454    0.63%
   1518  1520  3212060.3967   466  3193251.6334  3213417.3329    23455    0.63%
   1528  1530  3211971.4508   463  3193251.6334  3213417.3329    23487    0.63%
   1536  1538  3212131.4421   464  3193251.6334  3213417.3329    23523    0.63%
Elapsed time = 25.82 sec. (16176.94 ticks, tree = 11.65 MB, solutions = 8)
   1843  1845  3210817.5147   440  3193251.6334  3213417.3329    24744    0.63%
   1844  1846  3210955.9716   447  3193251.6334  3213417.3329    24746    0.63%
   1861  1863  3211430.7395   454  3193251.6334  3213417.3329    24809    0.63%
   1863  1865  3210804.3857   439  3193251.6334  3213417.3329    24818    0.63%
   1864  1866  3210944.5993   445  3193251.6334  3213417.3329    24820    0.63%
   1881  1883  3211419.3672   452  3193251.6334  3213417.3329    24878    0.63%
   1883  1885  3210791.2567   438  3193251.6334  3213417.3329    24884    0.63%
   1884  1886  3210885.6250   445  3193251.6334  3213417.3329    24890    0.63%
   1901  1903  3211360.3929   452  3193251.6334  3213417.3329    24939    0.63%
   1903  1905  3210780.8502   437  3193251.6334  3213417.3329    24946    0.63%
Elapsed time = 28.75 sec. (17364.07 ticks, tree = 27.86 MB, solutions = 8)
   2540  2542  3209920.2489   413  3193251.6334  3213417.3329    26641    0.63%
   2550  2552  3208652.5664   395  3193251.6334  3213417.3329    26670    0.63%
   2560  2562  3209768.7285   412  3193251.6334  3213417.3329    26696    0.63%
   2561  2563  3209737.3235   415  3193251.6334  3213417.3329    26698    0.63%
   2570  2572  3208785.2194   395  3193251.6334  3213417.3329    26723    0.63%
*  2574+ 2574                      3194802.3651  3213417.3329             0.58%
   2574  2576  3208714.1201   395  3194802.3651  3213417.3329    26737    0.58%
   2580  2582  3209624.6268   413  3194802.3651  3213417.3329    26760    0.58%
   2581  2583  3209875.5667   415  3194802.3651  3213417.3329    26762    0.58%
   2590  2592  3208564.0104   395  3194802.3651  3213417.3329    26787    0.58%
   2594  2596  3208846.7730   395  3194802.3651  3213417.3329    26798    0.58%
Elapsed time = 32.16 sec. (18526.33 ticks, tree = 43.75 MB, solutions = 8)
   3302  3304  3208557.9873   386  3194802.3651  3213417.3329    28525    0.58%
   3322  3324  3208700.0316   386  3194802.3651  3213417.3329    28582    0.58%
   3334  3336  3207453.4259   374  3194802.3651  3213417.3329    28627    0.58%
   3341  3343  3208903.6175   394  3194802.3651  3213417.3329    28642    0.58%
   3342  3344  3208636.1054   386  3194802.3651  3213417.3329    28643    0.58%
   3354  3356  3207641.5962   375  3194802.3651  3213417.3329    28671    0.58%
   3361  3363  3208839.6913   394  3194802.3651  3213417.3329    28682    0.58%
   3362  3364  3208438.6824   385  3194802.3651  3213417.3329    28687    0.58%
   3373  3375  3208359.3190   383  3194802.3651  3213417.3329    28719    0.58%
   3374  3376  3207615.4497   374  3194802.3651  3213417.3329    28720    0.58%
Elapsed time = 35.74 sec. (19805.44 ticks, tree = 69.49 MB, solutions = 9)
   4248  4250  3204466.6949   335  3194802.3651  3213417.3329    30752    0.58%
   4249  4251  3207065.4323   373  3194802.3651  3213417.3329    30754    0.58%
   4250  4252  3207093.7701   368  3194802.3651  3213417.3329    30755    0.58%
   4251  4253  3205838.9071   354  3194802.3651  3213417.3329    30758    0.58%
   4252  4254  3205986.5905   363  3194802.3651  3213417.3329    30762    0.58%
   4253  4255  3206021.5696   367  3194802.3651  3213417.3329    30765    0.58%
   4254  4256  3204755.3259   340  3194802.3651  3213417.3329    30768    0.58%
   4255  4257  3205408.2659   344  3194802.3651  3213417.3329    30770    0.58%
   4256  4258  3204433.7885   335  3194802.3651  3213417.3329    30771    0.58%
   4257  4259  3205808.4102   347  3194802.3651  3213417.3329    30772    0.58%
Elapsed time = 39.76 sec. (21366.80 ticks, tree = 101.22 MB, solutions = 9)
   4753  4755  3205085.2589   342  3194802.3651  3213417.3329    32036    0.58%
   4769  4771  3205585.7072   360  3194802.3651  3213417.3329    32073    0.58%
   4773  4775  3205115.8496   342  3194802.3651  3213417.3329    32079    0.58%
   4789  4791  3205753.8250   361  3194802.3651  3213417.3329    32108    0.58%
   4793  4795  3205067.6988   342  3194802.3651  3213417.3329    32117    0.58%
   4809  4811  3205747.3260   360  3194802.3651  3213417.3329    32155    0.58%
   4813  4815  3205058.3297   340  3194802.3651  3213417.3329    32164    0.58%
   4829  4831  3205740.8269   359  3194802.3651  3213417.3329    32194    0.58%
   4833  4835  3205056.0676   340  3194802.3651  3213417.3329    32198    0.58%
   4846  4848  3204678.5376   335  3194802.3651  3213417.3329    32227    0.58%
Elapsed time = 44.38 sec. (22593.15 ticks, tree = 101.22 MB, solutions = 9)
*  5470+ 5470                      3194912.9524  3213417.3329             0.58%
*  5470+ 5470                      3195616.1528  3213417.3329             0.56%
*  5470+ 5470                      3197668.0209  3213417.3329             0.49%
*  5470+ 5470                      3198639.7755  3213417.3329             0.46%
*  5470+ 5470                      3198665.3400  3213417.3329             0.46%
*  5470+ 5470                      3198824.5434  3213417.3329             0.46%
*  5470+ 5470                      3199008.9819  3213417.3329             0.45%
   5470  5472  3201986.6989   270  3199008.9819  3213417.3329    33794    0.45%
*  5471+ 5471                      3199235.0908  3213417.3329             0.44%
*  5471+ 5471                      3199298.0090  3213417.3329             0.44%
   5471  5473  3205145.5675   338  3199298.0090  3213417.3329    33797    0.44%
   5472  5474  3204194.2882   319  3199298.0090  3213417.3329    33798    0.44%
*  5473+ 5473                      3199302.6875  3213417.3329             0.44%
*  5473+ 5473                      3199320.4202  3213417.3329             0.44%
   5473  5475  3203079.9736   278  3199320.4202  3213417.3329    33799    0.44%
*  5474+ 5474                      3199347.5160  3213417.3329             0.44%
*  5474+ 5474                      3199365.3468  3213417.3329             0.44%
   5474  5476  3203703.5115   302  3199365.3468  3213417.3329    33803    0.44%
   5475  5477  3204160.8638   313  3199365.3468  3213417.3329    33804    0.44%
   5476  5478  3202546.6780   284  3199365.3468  3213417.3329    33815    0.44%
   5477  5479  3202563.3737   273  3199365.3468  3213417.3329    33822    0.44%
   5478  5480  3202346.4710   276  3199365.3468  3213417.3329    33833    0.44%
   5479  5481  3203641.8519   287  3199365.3468  3213417.3329    33834    0.44%
Elapsed time = 88.80 sec. (54377.26 ticks, tree = 254.81 MB, solutions = 9)
*  5490+ 3660                      3199412.2831  3205865.5284             0.20%
*  5490+ 2440                      3199651.2465  3202835.4418             0.10%
*  5490+ 1626                      3200418.2380  3202835.4418             0.08%
*  5490+ 1084                      3200944.2651  3202835.4418             0.06%
*  5490+  722                      3201020.3148  3202288.6311             0.04%
*  5490+  481                      3201505.5901  3202288.6311             0.02%
*  5490+  320                      3201523.4792  3202288.6311             0.02%
*  5490+  213                      3201571.8114  3202106.3281             0.02%
*  5490+  141                      3201572.3702  3201906.0440             0.01%
*  5490+   93                      3201588.3555  3201894.1806             0.01%

Implied bound cuts applied:  178
Flow cuts applied:  39
Mixed integer rounding cuts applied:  4667
Lift and project cuts applied:  35
Gomory fractional cuts applied:  236

Root node processing (before b&c):
  Real time             =   15.01 sec. (11749.95 ticks)
Parallel b&c, 20 threads:
  Real time             =  104.17 sec. (68176.22 ticks)
  Sync time (average)   =   14.55 sec.
  Wait time (average)   =   15.53 sec.
                          ------------
Total (root+branch&cut) =  119.18 sec. (79926.17 ticks)
MKLROOT=/global/software/sl-6.x86_64/modules/langs/intel/2015.6.233/mkl
SLURM_NODELIST=n0115.savio1
SLURM_CHECKPOINT_IMAGE_DIR=/var/slurm/checkpoint
MANPATH=/global/software/sl-6.x86_64/modules/langs/julia/0.5.0/share/man:/global/software/sl-6.x86_64/modules/langs/intel/2015.6.233/man/en_US:/global/software/sl-6.x86_64/modules/langs/gcc/4.8.5/share/man:/usr/share/man
SLURM_JOB_NAME=aggregator
HOSTNAME=n0115.savio1
SLURM_NTASKS_PER_NODE=1
SLURM_TOPOLOGY_ADDR=ib-savio.ib-savio-04.n0115.savio1
SLURMD_NODENAME=n0115.savio1
SLURM_PRIO_PROCESS=0
SLURM_NODE_ALIASES=(null)
TERM=xterm-256color
SHELL=/bin/bash
HISTSIZE=1000
SLURM_JOB_QOS=savio_normal
SSH_CLIENT=128.32.156.166 53087 22
SLURM_TOPOLOGY_ADDR_PATTERN=switch.switch.node
TMPDIR=/tmp
LIBRARY_PATH=/global/software/sl-6.x86_64/modules/langs/julia/0.5.0/lib/julia:/global/software/sl-6.x86_64/modules/langs/intel/2015.6.233/mkl/lib/intel64:/global/software/sl-6.x86_64/modules/langs/gcc/4.8.5/lib64:/global/software/sl-6.x86_64/modules/langs/gcc/4.8.5/lib
GCC_DIR=/global/software/sl-6.x86_64/modules/langs/gcc/4.8.5
FPATH=/global/software/sl-6.x86_64/modules/langs/intel/2015.6.233/mkl/include/fftw:/global/software/sl-6.x86_64/modules/langs/intel/2015.6.233/mkl/include
SSH_TTY=/dev/pts/23
USER=jdlara
SLURM_NNODES=1
LD_LIBRARY_PATH=/global/software/sl-6.x86_64/modules/langs/julia/0.5.0/lib/julia:/global/software/sl-6.x86_64/modules/langs/intel/2015.6.233/mkl/lib/intel64:/global/software/sl-6.x86_64/modules/langs/gcc/4.8.5/lib64:/global/software/sl-6.x86_64/modules/langs/gcc/4.8.5/lib:/global/home/users/jdlara/gurobi652/linux64/lib
LS_COLORS=rs=0:di=38;5;27:ln=38;5;51:mh=44;38;5;15:pi=40;38;5;11:so=38;5;13:do=38;5;5:bd=48;5;232;38;5;11:cd=48;5;232;38;5;3:or=48;5;232;38;5;9:mi=05;48;5;232;38;5;15:su=48;5;196;38;5;15:sg=48;5;11;38;5;16:ca=48;5;196;38;5;226:tw=48;5;10;38;5;16:ow=48;5;10;38;5;21:st=48;5;21;38;5;15:ex=38;5;34:*.tar=38;5;9:*.tgz=38;5;9:*.arj=38;5;9:*.taz=38;5;9:*.lzh=38;5;9:*.lzma=38;5;9:*.tlz=38;5;9:*.txz=38;5;9:*.zip=38;5;9:*.z=38;5;9:*.Z=38;5;9:*.dz=38;5;9:*.gz=38;5;9:*.lz=38;5;9:*.xz=38;5;9:*.bz2=38;5;9:*.tbz=38;5;9:*.tbz2=38;5;9:*.bz=38;5;9:*.tz=38;5;9:*.deb=38;5;9:*.rpm=38;5;9:*.jar=38;5;9:*.rar=38;5;9:*.ace=38;5;9:*.zoo=38;5;9:*.cpio=38;5;9:*.7z=38;5;9:*.rz=38;5;9:*.jpg=38;5;13:*.jpeg=38;5;13:*.gif=38;5;13:*.bmp=38;5;13:*.pbm=38;5;13:*.pgm=38;5;13:*.ppm=38;5;13:*.tga=38;5;13:*.xbm=38;5;13:*.xpm=38;5;13:*.tif=38;5;13:*.tiff=38;5;13:*.png=38;5;13:*.svg=38;5;13:*.svgz=38;5;13:*.mng=38;5;13:*.pcx=38;5;13:*.mov=38;5;13:*.mpg=38;5;13:*.mpeg=38;5;13:*.m2v=38;5;13:*.mkv=38;5;13:*.ogm=38;5;13:*.mp4=38;5;13:*.m4v=38;5;13:*.mp4v=38;5;13:*.vob=38;5;13:*.qt=38;5;13:*.nuv=38;5;13:*.wmv=38;5;13:*.asf=38;5;13:*.rm=38;5;13:*.rmvb=38;5;13:*.flc=38;5;13:*.avi=38;5;13:*.fli=38;5;13:*.flv=38;5;13:*.gl=38;5;13:*.dl=38;5;13:*.xcf=38;5;13:*.xwd=38;5;13:*.yuv=38;5;13:*.cgm=38;5;13:*.emf=38;5;13:*.axv=38;5;13:*.anx=38;5;13:*.ogv=38;5;13:*.ogx=38;5;13:*.aac=38;5;45:*.au=38;5;45:*.flac=38;5;45:*.mid=38;5;45:*.midi=38;5;45:*.mka=38;5;45:*.mp3=38;5;45:*.mpc=38;5;45:*.ogg=38;5;45:*.ra=38;5;45:*.wav=38;5;45:*.axa=38;5;45:*.oga=38;5;45:*.spx=38;5;45:*.xspf=38;5;45:
CPATH=/global/software/sl-6.x86_64/modules/langs/julia/0.5.0/include:/global/software/sl-6.x86_64/modules/langs/intel/2015.6.233/mkl/include/fftw:/global/software/sl-6.x86_64/modules/langs/intel/2015.6.233/mkl/include:/global/software/sl-6.x86_64/modules/langs/gcc/4.8.5/include
SLURM_JOBID=1277292
SLURM_NTASKS=1
NLSPATH=/global/software/sl-6.x86_64/modules/langs/intel/2015.6.233/mkl/lib/intel64/locale/en_US
MAIL=/var/spool/mail/jdlara
PATH=/global/software/sl-6.x86_64/modules/langs/julia/0.5.0/bin:/global/software/sl-6.x86_64/modules/langs/gcc/4.8.5/bin:/usr/local/bin:/bin:/usr/bin:/usr/local/sbin:/usr/sbin:/sbin:/global/home/groups/allhands/bin:/global/home/users/jdlara/gurobi652/linux64/bin:/global/home/users/jdlara/bin:/global/home/users/jdlara/gurobi652/linux64/bin
SLURM_TASKS_PER_NODE=20
SLURM_CPUS_PER_TASK=1
SLURM_JOB_ID=1277292
PWD=/global/home/users/jdlara/Julia_testcodes/aggregator_model/Multiple_fleet
SLURM_JOB_USER=jdlara
_LMFILES_=/global/software/sl-6.x86_64/modfiles/langs/gcc/4.8.5:/global/software/sl-6.x86_64/modfiles/gcc/4.8.5/mkl/2015.6.233:/global/software/sl-6.x86_64/modfiles/langs/julia/0.5.0
CUDA_VISIBLE_DEVICES=NoDevFiles
MODULEPATH=/global/software/sl-6.x86_64/modfiles/tools:/global/software/sl-6.x86_64/modfiles/langs:/global/software/sl-6.x86_64/modfiles/julia/0.5.0:/global/software/sl-6.x86_64/modfiles/gcc/4.8.5
LOADEDMODULES=gcc/4.8.5:mkl/2015.6.233:julia/0.5.0
SLURM_JOB_UID=42745
SLURM_NODEID=0
SLURM_SUBMIT_DIR=/global/home/users/jdlara/Julia_testcodes/aggregator_model/Multiple_fleet
SLURM_NPROCS=1
SLURM_TASK_PID=5969
LM_LICENSE_FILE=28518@lmgr0.hpcs.lbl.gov
SLURM_CPUS_ON_NODE=20
JULIA_DIR=/global/software/sl-6.x86_64/modules/langs/julia/0.5.0
ALLHANDS_BASHRC=1
HISTCONTROL=ignoredups
ENVIRONMENT=BATCH
SLURM_PROCID=0
MKL_DIR=/global/software/sl-6.x86_64/modules/langs/intel/2015.6.233/mkl
SLURM_JOB_NODELIST=n0115.savio1
SHLVL=3
HOME=/global/home/users/jdlara
SLURM_LOCALID=0
SLURM_CLUSTER_NAME=brc
SLURM_JOB_CPUS_PER_NODE=20
SLURM_SUBMIT_HOST=n0052.savio1
SLURM_GTIDS=0
SLURM_JOB_PARTITION=savio
LOGNAME=jdlara
CVS_RSH=ssh
SSH_CONNECTION=128.32.156.166 53087 10.0.0.22 22
SLURM_JOB_ACCOUNT=fc_emac
GPU_DEVICE_ORDINAL=NoDevFiles
MODULESHOME=/usr/Modules
SLURM_JOB_NUM_NODES=1
LESSOPEN=||/usr/bin/lesspipe.sh %s
INFOPATH=/global/software/sl-6.x86_64/modules/langs/gcc/4.8.5/share/info
INCLUDE=/global/software/sl-6.x86_64/modules/langs/julia/0.5.0/include:/global/software/sl-6.x86_64/modules/langs/intel/2015.6.233/mkl/include/fftw:/global/software/sl-6.x86_64/modules/langs/intel/2015.6.233/mkl/include:/global/software/sl-6.x86_64/modules/langs/gcc/4.8.5/include
G_BROKEN_FILENAMES=1
SLURM_MEM_PER_NODE=64000
BASH_FUNC_module()=() {  logger "$HOSTNAME $USER: module $*";
 eval `/usr/Modules/bin/modulecmd bash $*`
}
_=/bin/env
